Maximize
	- 4 x1 - 3 x3 + 4 x4 
Maximize
	+ 6 x1 - 3 x2 
Maximize
	+ 6 x1 - 3 x2 + 6 x3 + 4 x4 
Subject To
	- 2 x1 + 1 x2 - 3 x3 <= 6
Bounds
	0 <= x1 <= 4
	0 <= x2 <= 4
	0 <= x3 <= 4
	0 <= x4 <= 4
Integers
	x1 x2 x3 x4 
End